int NumberPatients = 96
int NumberOfRooms = 15
int NumberSurgeons = 6
int NumberOfDays = 6
Duration = [105,93,32,66,47,32,32,101,97,66,85,72,132,166,138,71,103,40,66,98,93,119,105,119,61,103,119,33,119,98,263,117,47,98,35,104,47,272,98,50,201,119,46,50,72,31,85,130,32,60,66,112,131,98,92,60,103,103,93,32,32,31,105,60,72,217,119,32,50,32,93,105,119,166,249,38,32,92,66,146,93,210,32,238,31,210,32,46,50,72,103,66,60,66,66,46];
Priority = [0,0,0,0,0,0,0,1,0,0,0,0,0,0,0,0,0,0,0,0,0,0,0,0,0,0,0,0,0,0,0,0,0,0,0,0,0,0,0,0,0,0,0,0,0,0,0,0,0,0,0,0,0,0,0,0,0,0,0,0,0,0,0,0,0,0,0,0,0,0,0,0,0,0,0,0,0,0,0,0,0,0,0,0,0,0,1,0,0,0,0,0,0,0,0,0];
Waiting = [144,261,158,43,72,141,60,37,37,211,50,417,190,169,149,57,274,375,361,228,102,85,39,135,155,366,24,84,72,200,66,59,67,66,50,45,148,221,165,150,44,410,107,36,21,178,65,70,184,49,141,67,21,213,133,178,354,77,499,84,1047,141,21,35,135,120,21,121,247,297,213,218,127,52,59,30,52,158,430,45,23,164,38,59,487,39,44,102,184,261,70,58,50,310,66,32];
Surgeon = [10,8,8,3,4,1,2,1,1,2,3,6,1,6,7,6,5,5,3,5,1,6,5,9,5,1,1,2,8,1,6,5,4,1,6,7,4,2,4,4,2,3,3,2,1,3,5,4,3,1,1,7,5,2,10,3,1,2,8,6,5,1,6,1,6,7,4,2,2,3,3,1,5,1,8,3,8,2,4,1,1,2,5,3,7,1,1,3,4,1,10,7,1,3,5,3];
BlockAvailability = [[[0,0],[0,1],[1,0],[0,0],[0,0],[0,0],[0,1],[0,0],[0,0],[0,0],[0,0],[0,0],[0,1],[0,0],[0,0]],[[0,1],[0,1],[0,0],[0,0],[0,0],[0,0],[1,1],[0,0],[0,0],[1,0],[0,0],[1,0],[0,1],[0,0],[0,1]],[[0,1],[0,0],[1,0],[0,0],[0,0],[0,1],[0,0],[1,0],[1,1],[0,0],[0,1],[0,0],[0,0],[0,0],[0,0]],[[1,1],[0,1],[0,0],[1,0],[0,0],[1,0],[0,1],[0,0],[0,0],[0,1],[0,0],[1,0],[0,0],[0,1],[1,0]],[[0,0],[0,1],[0,0],[1,0],[0,1],[0,1],[0,0],[0,1],[0,0],[1,0],[1,0],[0,1],[0,0],[0,1],[0,0]],[[0,0],[0,0],[0,0],[0,0],[0,1],[0,0],[0,1],[1,0],[0,0],[0,0],[0,1],[1,0],[0,1],[0,0],[0,0]]];
SurgeonAvailability = [[[1,1],[0,1],[1,0],[0,0],[1,1],[0,1]],[[1,1],[0,0],[1,0],[1,0],[1,1],[1,1]],[[1,1],[1,1],[1,1],[1,1],[0,1],[1,1]],[[1,1],[1,0],[1,1],[0,1],[0,0],[1,1]],[[0,1],[1,0],[1,1],[0,1],[1,1],[1,1]],[[1,1],[1,0],[1,0],[1,0],[1,1],[1,0]]];
